column=6;
row=6;
Board=[|6,0,0,3,4,2|4,3,0,0,0,1|1,6,4,0,3,5|0,0,5,4,0,6|2,4,6,0,0,3|0,2,3,1,0,4|];
horizontal=[|2,0,0,0,2|2,0,0,2,0|0,2,2,0,1|0,0,0,0,0|0,1,0,0,0|2,0,2,1,2|];
vertical=[|2,0,0,1,0,2|0,1,1,0,2,0|0,2,0,0,2,1|2,0,0,1,2,0|1,2,2,0,0,0|];
